coords = array2d(1..38, 1..2, [457, 247, 764, 270, 391, 453, 183, 676, 351,
    761, 826, 630, 992, 697, 659, 388, 508, 961, 777, 561, 148, 309,
    603, 261, 757, 138, 212, 940, 776, 398, 13, 995, 8, 849, 783, 215,
    870, 381, 221, 894, 500, 771, 545, 88, 491, 366, 869, 153, 976,
    599, 950, 86, 691, 220, 779, 879, 870, 715, 377, 151, 491, 679,
    512, 356, 619, 860, 523, 764, 407, 838, 289, 988, 324, 490, 28,
    91]);

n = 38;

